CPXPARAM_TimeLimit                               1800
CPXPARAM_Read_DataCheck                          1
CPXPARAM_MIP_Strategy_HeuristicFreq              -1
Tried aggregator 1 time.
LP Presolve eliminated 11 rows and 90 columns.
Reduced LP has 209 rows, 46 columns, and 583 nonzeros.
Presolve time = 0.00 sec. (0.11 ticks)

Iteration log . . .
Iteration:     1   Dual objective     =            23.000000
